p wcnf 5000 500 1
1 1 0
1 2 0
1 3 0
1 4 0
1 5 0
1 6 0
1 7 0
1 8 0
1 9 0
1 10 0
1 11 0
1 12 0
1 13 0
1 14 0
1 15 0
1 1 1 1 1 1 1 1 1 1 1 1 1 1 1 0
1 1 1 1 1 1 1 1 1 1 1 1 1 1 2 0
1 2 2 2 2 2 2 2 2 2 2 2 2 2 2 0
1 2 2 2 2 2 2 2 2 2 2 2 2 2 2 0
1 2 2 2 2 2 2 2 2 2 2 2 2 2 2 0
1 2 3 3 3 3 3 3 3 3 3 3 3 3 3 0
1 3 3 3 3 3 3 3 3 3 3 3 3 3 3 0
1 3 3 3 3 3 3 3 3 3 3 3 3 3 3 0
1 3 3 3 3 3 3 3 3 3 3 3 3 4 4 0
1 4 4 4 4 4 4 4 4 4 4 4 4 4 4 0
1 4 4 4 4 4 4 4 4 4 4 4 4 4 4 0
1 4 4 4 4 4 4 4 4 4 4 4 4 4 4 0
1 4 5 5 5 5 5 5 5 5 5 5 5 5 5 0
1 5 5 5 5 5 5 5 5 5 5 5 5 5 5 0
1 5 5 5 5 5 5 5 5 5 5 5 5 5 5 0
1 5 5 5 5 5 5 5 6 6 6 6 6 6 6 0
1 6 6 6 6 6 6 6 6 6 6 6 6 6 6 0
1 6 6 6 6 6 6 6 6 6 6 6 6 6 6 0
1 6 6 6 6 6 6 6 6 6 6 6 6 6 6 0
1 6 6 7 7 7 7 7 7 7 7 7 7 7 7 0
1 7 7 7 7 7 7 7 7 7 7 7 7 7 7 0
1 7 7 7 7 7 7 7 7 7 7 7 7 7 7 0
1 7 7 8 8 8 8 8 8 8 8 8 8 8 8 0
1 8 8 8 8 8 8 8 8 8 8 8 8 8 8 0
1 8 8 8 8 8 8 8 8 8 8 8 8 8 8 0
1 8 8 8 8 8 8 8 8 8 9 9 9 9 9 0
1 9 9 9 9 9 9 9 9 9 9 9 9 9 9 0
1 9 9 9 9 9 9 9 9 9 9 9 9 9 9 0
1 9 9 9 9 9 9 9 9 9 9 9 9 9 9 0
1 9 9 9 9 9 9 9 10 10 10 10 10 10 10 0
1 10 10 10 10 10 10 10 10 10 10 10 10 10 10 0
1 10 10 10 10 10 10 10 10 10 10 10 10 10 10 0
1 10 10 10 10 10 10 10 10 10 10 10 10 10 11 0
1 11 11 11 11 11 11 11 11 11 11 11 11 11 11 0
1 11 11 11 11 11 11 11 11 11 11 11 11 11 11 0
1 11 11 11 11 11 11 11 11 11 11 11 11 11 11 0
1 11 11 11 11 11 11 11 11 12 12 12 12 12 12 0
1 12 12 12 12 12 12 12 12 12 12 12 12 12 12 0
1 12 12 12 12 12 12 12 12 12 12 12 12 12 12 0
1 12 12 12 12 12 12 12 12 13 13 13 13 13 13 0
1 13 13 13 13 13 13 13 13 13 13 13 13 13 13 0
1 13 13 13 13 13 13 13 13 13 13 13 13 13 13 0
1 13 13 13 13 13 13 13 13 13 14 14 14 14 14 0
1 14 14 14 14 14 14 14 14 14 14 14 14 14 14 0
1 14 14 14 14 14 14 14 14 14 14 14 14 14 14 0
1 14 14 14 14 14 14 14 14 14 14 14 14 14 14 0
1 14 14 14 14 14 14 14 14 15 15 15 15 15 15 0
1 15 15 15 15 15 15 15 15 15 15 15 15 15 15 0
1 15 15 15 15 15 15 15 15 15 15 15 15 15 15 0
1 15 15 15 15 15 15 15 15 15 15 15 15 16 16 0
1 16 16 16 16 16 16 16 16 16 16 16 16 16 16 0
1 16 16 16 16 16 16 16 16 16 16 16 16 16 16 0
1 16 16 16 16 16 16 16 16 16 16 16 16 16 16 0
1 16 16 16 16 16 16 16 17 17 17 17 17 17 17 0
1 17 17 17 17 17 17 17 17 17 17 17 17 17 17 0
1 17 17 17 17 17 17 17 17 17 17 17 17 17 17 0
1 17 17 17 17 17 17 17 17 17 17 17 17 17 17 0
1 17 17 17 17 17 17 17 17 17 18 18 18 18 18 0
1 18 18 18 18 18 18 18 18 18 18 18 18 18 18 0
1 18 18 18 18 18 18 18 18 18 18 18 18 18 18 0
1 18 18 18 18 18 18 18 18 19 19 19 19 19 19 0
1 19 19 19 19 19 19 19 19 19 19 19 19 19 19 0
1 19 19 19 19 19 19 19 19 19 19 19 19 19 19 0
1 19 19 19 19 19 19 19 19 19 19 19 19 19 19 0
1 19 19 19 19 20 20 20 20 20 20 20 20 20 20 0
1 20 20 20 20 20 20 20 20 20 20 20 20 20 20 0
1 20 20 20 20 20 20 20 20 20 20 20 20 20 20 0
1 20 20 20 20 20 20 20 20 20 20 20 21 21 21 0
1 21 21 21 21 21 21 21 21 21 21 21 21 21 21 0
1 21 21 21 21 21 21 21 21 21 21 21 21 21 21 0
1 21 21 21 22 22 22 22 22 22 22 22 22 22 22 0
1 22 22 22 22 22 22 22 22 22 22 22 22 22 22 0
1 22 22 22 22 22 22 22 22 22 22 22 22 22 22 0
1 22 22 22 22 22 22 22 22 22 22 22 22 22 23 0
1 23 23 23 23 23 23 23 23 23 23 23 23 23 23 0
1 23 23 23 23 23 23 23 23 23 23 23 23 23 23 0
1 23 23 23 23 23 23 23 23 23 23 23 23 23 23 0
1 23 23 23 23 24 24 24 24 24 24 24 24 24 24 0
1 24 24 24 24 24 24 24 24 24 24 24 24 24 24 0
1 24 24 24 24 24 24 24 24 24 24 24 24 24 24 0
1 24 24 24 24 24 24 24 24 24 25 25 25 25 25 0
1 25 25 25 25 25 25 25 25 25 25 25 25 25 25 0
1 25 25 25 25 25 25 25 25 25 25 25 25 25 25 0
1 25 25 25 25 25 25 26 26 26 26 26 26 26 26 0
1 26 26 26 26 26 26 26 26 26 26 26 26 26 26 0
1 26 26 26 26 26 26 26 26 26 26 26 26 26 26 0
1 26 26 26 26 26 26 26 27 27 27 27 27 27 27 0
1 27 27 27 27 27 27 27 27 27 27 27 27 27 27 0
1 27 27 27 27 27 27 27 27 27 27 27 27 27 27 0
1 27 27 27 27 27 27 28 28 28 28 28 28 28 28 0
1 28 28 28 28 28 28 28 28 28 28 28 28 28 28 0
1 28 28 28 28 28 28 28 28 28 28 28 28 28 28 0
1 28 28 28 28 28 28 28 28 28 28 28 28 28 28 0
1 29 29 29 29 29 29 29 29 29 29 29 29 29 29 0
1 29 29 29 29 29 29 29 29 29 29 29 29 29 29 0
1 29 29 29 29 29 29 29 29 29 29 29 29 29 29 0
1 29 29 29 30 30 30 30 30 30 30 30 30 30 30 0
1 30 30 30 30 30 30 30 30 30 30 30 30 30 30 0
1 30 30 30 30 30 30 30 30 30 30 30 30 30 30 0
1 30 30 30 30 30 30 30 31 31 31 31 31 31 31 0
1 31 31 31 31 31 31 31 31 31 31 31 31 31 31 0
1 31 31 31 31 31 31 31 31 31 31 31 31 31 31 0
1 31 31 31 31 31 31 31 31 31 31 31 31 32 32 0
1 32 32 32 32 32 32 32 32 32 32 32 32 32 32 0
1 32 32 32 32 32 32 32 32 32 32 32 32 32 32 0
1 32 32 32 32 32 32 33 33 33 33 33 33 33 33 0
1 33 33 33 33 33 33 33 33 33 33 33 33 33 33 0
1 33 33 33 33 33 33 33 33 33 33 33 33 33 33 0
1 33 33 33 34 34 34 34 34 34 34 34 34 34 34 0
1 34 34 34 34 34 34 34 34 34 34 34 34 34 34 0
1 34 34 34 34 34 34 34 34 34 34 34 34 34 34 0
1 34 34 34 34 34 34 34 35 35 35 35 35 35 35 0
1 35 35 35 35 35 35 35 35 35 35 35 35 35 35 0
1 35 35 35 35 35 35 35 35 35 35 35 35 35 35 0
1 35 35 35 35 35 35 35 35 35 35 35 35 35 35 0
1 35 35 35 35 35 35 35 35 35 35 35 35 35 36 0
1 36 36 36 36 36 36 36 36 36 36 36 36 36 36 0
1 36 36 36 36 36 36 36 36 36 36 36 36 36 36 0
1 36 36 36 36 36 36 36 36 36 36 36 36 36 36 0
1 36 36 36 36 36 36 36 36 36 36 36 36 36 37 0
1 37 37 37 37 37 37 37 37 37 37 37 37 37 37 0
1 37 37 37 37 37 37 37 37 37 37 37 37 37 37 0
1 37 37 37 37 37 37 37 37 38 38 38 38 38 38 0
1 38 38 38 38 38 38 38 38 38 38 38 38 38 38 0
1 38 38 38 38 38 38 38 38 38 38 38 38 38 38 0
1 38 38 38 38 38 39 39 39 39 39 39 39 39 39 0
1 39 39 39 39 39 39 39 39 39 39 39 39 39 39 0
1 39 39 39 39 39 39 39 39 39 39 39 39 39 39 0
1 39 39 39 39 39 39 40 40 40 40 40 40 40 40 0
1 40 40 40 40 40 40 40 40 40 40 40 40 40 40 0
1 40 40 40 40 40 40 40 40 40 40 40 40 40 40 0
1 40 40 40 40 40 40 40 40 40 40 40 40 40 40 0
1 40 40 40 41 41 41 41 41 41 41 41 41 41 41 0
1 41 41 41 41 41 41 41 41 41 41 41 41 41 41 0
1 41 41 41 41 41 41 41 41 41 41 41 41 41 41 0
1 41 41 41 41 41 41 41 41 41 41 41 41 41 41 0
1 42 42 42 42 42 42 42 42 42 42 42 42 42 42 0
1 42 42 42 42 42 42 42 42 42 42 42 42 42 42 0
1 42 42 42 42 42 42 42 42 42 42 42 42 42 42 0
1 42 42 42 42 43 43 43 43 43 43 43 43 43 43 0
1 43 43 43 43 43 43 43 43 43 43 43 43 43 43 0
1 43 43 43 43 43 43 43 43 43 43 43 43 43 44 0
1 44 44 44 44 44 44 44 44 44 44 44 44 44 44 0
1 44 44 44 44 44 44 44 44 44 44 44 44 44 44 0
1 44 44 44 44 44 44 44 44 44 44 44 44 44 44 0
1 45 45 45 45 45 45 45 45 45 45 45 45 45 45 0
1 45 45 45 45 45 45 45 45 45 45 45 45 45 45 0
1 45 45 45 45 45 45 45 45 45 45 45 45 45 45 0
1 45 46 46 46 46 46 46 46 46 46 46 46 46 46 0
1 46 46 46 46 46 46 46 46 46 46 46 46 46 46 0
1 46 46 46 46 46 46 46 46 46 46 46 46 46 46 0
1 46 46 46 46 47 47 47 47 47 47 47 47 47 47 0
1 47 47 47 47 47 47 47 47 47 47 47 47 47 47 0
1 47 47 47 47 47 47 47 47 47 47 47 47 47 47 0
1 47 47 47 47 47 47 47 47 47 47 47 47 47 47 0
1 47 48 48 48 48 48 48 48 48 48 48 48 48 48 0
1 48 48 48 48 48 48 48 48 48 48 48 48 48 48 0
1 48 48 48 48 48 48 48 48 48 48 48 48 48 48 0
1 48 48 48 48 48 48 48 48 48 48 48 48 48 49 0
1 49 49 49 49 49 49 49 49 49 49 49 49 49 49 0
1 49 49 49 49 49 49 49 49 49 49 49 49 49 49 0
1 49 49 49 49 49 49 49 49 49 49 49 49 49 50 0
1 50 50 50 50 50 50 50 50 50 50 50 50 50 50 0
1 50 50 50 50 50 50 50 50 50 50 50 50 50 50 0
1 50 50 50 50 50 50 50 50 50 50 50 50 50 50 0
1 50 50 50 50 50 50 51 51 51 51 51 51 51 51 0
1 51 51 51 51 51 51 51 51 51 51 51 51 51 51 0
1 51 51 51 51 51 51 51 51 51 51 51 51 51 51 0
1 51 51 51 51 51 51 51 51 51 51 51 51 51 51 0
1 51 51 51 51 51 51 51 52 52 52 52 52 52 52 0
1 52 52 52 52 52 52 52 52 52 52 52 52 52 52 0
1 52 52 52 52 52 52 52 52 52 52 52 52 52 52 0
1 52 52 52 52 52 52 52 52 52 52 53 53 53 53 0
1 53 53 53 53 53 53 53 53 53 53 53 53 53 53 0
1 53 53 53 53 53 53 53 53 53 53 53 53 53 53 0
1 53 53 53 53 53 53 53 53 53 53 53 54 54 54 0
1 54 54 54 54 54 54 54 54 54 54 54 54 54 54 0
1 54 54 54 54 54 54 54 54 54 54 54 54 54 54 0
1 54 54 54 54 54 54 54 54 55 55 55 55 55 55 0
1 55 55 55 55 55 55 55 55 55 55 55 55 55 55 0
1 55 55 55 55 55 55 55 55 55 55 55 55 55 55 0
1 55 55 55 55 55 55 55 55 55 56 56 56 56 56 0
1 56 56 56 56 56 56 56 56 56 56 56 56 56 56 0
1 56 56 56 56 56 56 56 56 56 56 56 56 56 56 0
1 56 56 56 56 56 56 56 56 56 56 56 56 56 56 0
1 56 57 57 57 57 57 57 57 57 57 57 57 57 57 0
1 57 57 57 57 57 57 57 57 57 57 57 57 57 57 0
1 57 57 57 57 57 57 57 57 57 57 57 57 57 57 0
1 57 57 57 57 57 57 57 57 57 57 57 57 57 57 0
1 58 58 58 58 58 58 58 58 58 58 58 58 58 58 0
1 58 58 58 58 58 58 58 58 58 58 58 58 58 58 0
1 58 58 58 58 58 58 58 58 58 58 58 58 58 58 0
1 58 58 59 59 59 59 59 59 59 59 59 59 59 59 0
1 59 59 59 59 59 59 59 59 59 59 59 59 59 59 0
1 59 59 59 59 59 59 59 59 59 59 59 59 59 59 0
1 59 59 59 59 59 59 59 59 59 60 60 60 60 60 0
1 60 60 60 60 60 60 60 60 60 60 60 60 60 60 0
1 60 60 60 60 60 60 60 60 60 60 60 60 60 60 0
1 60 60 60 60 60 60 60 60 60 60 60 60 61 61 0
1 61 61 61 61 61 61 61 61 61 61 61 61 61 61 0
1 61 61 61 61 61 61 61 61 61 61 61 61 61 61 0
1 61 61 61 61 62 62 62 62 62 62 62 62 62 62 0
1 62 62 62 62 62 62 62 62 62 62 62 62 62 62 0
1 62 62 62 62 62 62 62 62 62 62 62 62 62 62 0
1 62 62 62 62 62 63 63 63 63 63 63 63 63 63 0
1 63 63 63 63 63 63 63 63 63 63 63 63 63 63 0
1 63 63 63 63 63 63 63 63 63 63 63 63 63 63 0
1 63 63 64 64 64 64 64 64 64 64 64 64 64 64 0
1 64 64 64 64 64 64 64 64 64 64 64 64 64 64 0
1 64 64 64 64 64 64 64 64 64 64 64 64 64 64 0
1 64 64 64 64 64 64 64 65 65 65 65 65 65 65 0
1 65 65 65 65 65 65 65 65 65 65 65 65 65 65 0
1 65 65 65 65 65 65 65 65 65 65 65 65 65 65 0
1 65 65 65 65 65 66 66 66 66 66 66 66 66 66 0
1 66 66 66 66 66 66 66 66 66 66 66 66 66 66 0
1 66 66 66 66 66 66 66 66 66 66 66 66 66 66 0
1 66 66 66 66 67 67 67 67 67 67 67 67 67 67 0
1 67 67 67 67 67 67 67 67 67 67 67 67 67 67 0
1 67 67 67 67 67 67 67 67 67 67 67 67 67 67 0
1 67 67 67 67 67 67 67 67 67 67 67 68 68 68 0
1 68 68 68 68 68 68 68 68 68 68 68 68 68 68 0
1 68 68 68 68 68 68 68 68 68 68 68 68 68 68 0
1 68 68 68 68 68 68 68 68 68 68 68 68 68 68 0
1 68 68 68 69 69 69 69 69 69 69 69 69 69 69 0
1 69 69 69 69 69 69 69 69 69 69 69 69 69 69 0
1 69 69 69 69 69 69 69 69 69 69 69 69 69 69 0
1 69 70 70 70 70 70 70 70 70 70 70 70 70 70 0
1 70 70 70 70 70 70 70 70 70 70 70 70 70 70 0
1 70 70 70 70 70 70 70 70 70 70 70 70 70 70 0
1 70 70 70 70 70 70 70 71 71 71 71 71 71 71 0
1 71 71 71 71 71 71 71 71 71 71 71 71 71 71 0
1 71 71 71 71 71 71 71 71 71 71 71 71 71 71 0
1 71 71 71 71 71 71 71 71 71 71 71 71 71 71 0
1 71 71 71 71 72 72 72 72 72 72 72 72 72 72 0
1 72 72 72 72 72 72 72 72 72 72 72 72 72 72 0
1 72 72 72 72 72 72 72 72 72 72 72 72 72 72 0
1 73 73 73 73 73 73 73 73 73 73 73 73 73 73 0
1 73 73 73 73 73 73 73 73 73 73 73 73 73 73 0
1 73 73 73 73 73 73 73 73 73 73 73 73 73 73 0
1 73 73 73 73 73 73 73 74 74 74 74 74 74 74 0
1 74 74 74 74 74 74 74 74 74 74 74 74 74 74 0
1 74 74 74 74 74 74 74 74 74 74 74 74 74 74 0
1 74 74 74 74 74 74 74 75 75 75 75 75 75 75 0
1 75 75 75 75 75 75 75 75 75 75 75 75 75 75 0
1 75 75 75 75 75 75 75 75 75 75 75 75 75 75 0
1 75 75 75 75 75 75 75 75 75 75 75 75 75 75 0
1 76 76 76 76 76 76 76 76 76 76 76 76 76 76 0
1 76 76 76 76 76 76 76 76 76 76 76 76 76 76 0
1 76 76 76 76 76 76 76 76 76 76 76 76 76 76 0
1 76 76 76 76 76 76 76 77 77 77 77 77 77 77 0
1 77 77 77 77 77 77 77 77 77 77 77 77 77 77 0
1 77 77 77 77 77 77 77 77 77 77 77 77 77 77 0
1 77 77 77 77 77 77 77 77 77 77 77 77 78 78 0
1 78 78 78 78 78 78 78 78 78 78 78 78 78 78 0
1 78 78 78 78 78 78 78 78 78 78 78 78 78 78 0
1 78 78 78 78 78 78 78 78 78 78 78 78 78 78 0
1 78 78 78 78 78 78 78 78 78 79 79 79 79 79 0
1 79 79 79 79 79 79 79 79 79 79 79 79 79 79 0
1 79 79 79 79 79 79 79 79 79 79 79 79 79 79 0
1 79 79 79 79 79 79 79 79 79 79 79 79 79 80 0
1 80 80 80 80 80 80 80 80 80 80 80 80 80 80 0
1 80 80 80 80 80 80 80 80 80 80 80 80 80 80 0
1 80 80 80 80 80 80 80 80 80 80 80 80 80 80 0
1 80 80 80 80 80 80 80 80 80 80 80 81 81 81 0
1 81 81 81 81 81 81 81 81 81 81 81 81 81 81 0
1 81 81 81 81 81 81 81 81 81 81 81 81 81 81 0
1 81 81 81 81 81 81 81 81 81 81 81 81 81 81 0
1 81 81 81 81 81 81 81 81 81 82 82 82 82 82 0
1 82 82 82 82 82 82 82 82 82 82 82 82 82 82 0
1 82 82 82 82 82 82 82 82 82 82 82 82 82 82 0
1 82 82 82 82 82 82 82 82 82 82 82 82 82 82 0
1 82 82 82 82 82 82 82 82 83 83 83 83 83 83 0
1 83 83 83 83 83 83 83 83 83 83 83 83 83 83 0
1 83 83 83 83 83 83 83 83 83 83 83 83 83 83 0
1 83 83 83 83 83 83 83 83 83 83 83 83 83 83 0
1 83 83 84 84 84 84 84 84 84 84 84 84 84 84 0
1 84 84 84 84 84 84 84 84 84 84 84 84 84 84 0
1 84 84 84 84 84 84 84 84 84 84 84 84 84 84 0
1 84 84 84 84 84 84 84 84 84 84 84 84 84 84 0
1 84 84 84 85 85 85 85 85 85 85 85 85 85 85 0
1 85 85 85 85 85 85 85 85 85 85 85 85 85 85 0
1 85 85 85 85 85 85 85 85 85 85 85 85 85 85 0
1 85 85 85 85 85 85 85 85 86 86 86 86 86 86 0
1 86 86 86 86 86 86 86 86 86 86 86 86 86 86 0
1 86 86 86 86 86 86 86 86 86 86 86 86 86 86 0
1 86 86 86 86 86 86 86 86 86 86 86 87 87 87 0
1 87 87 87 87 87 87 87 87 87 87 87 87 87 87 0
1 87 87 87 87 87 87 87 87 87 87 87 87 87 87 0
1 87 87 87 87 87 87 88 88 88 88 88 88 88 88 0
1 88 88 88 88 88 88 88 88 88 88 88 88 88 88 0
1 88 88 88 88 88 88 88 88 88 88 88 88 88 88 0
1 88 89 89 89 89 89 89 89 89 89 89 89 89 89 0
1 89 89 89 89 89 89 89 89 89 89 89 89 89 89 0
1 89 89 89 89 89 89 89 89 89 89 89 89 89 89 0
1 89 89 89 90 90 90 90 90 90 90 90 90 90 90 0
1 90 90 90 90 90 90 90 90 90 90 90 90 90 90 0
1 90 90 90 90 90 90 90 90 90 90 90 90 90 90 0
1 90 90 90 90 90 90 90 90 90 90 91 91 91 91 0
1 91 91 91 91 91 91 91 91 91 91 91 91 91 91 0
1 91 91 91 91 91 91 91 91 91 91 91 91 91 91 0
1 91 91 91 91 91 91 91 91 91 91 91 91 91 91 0
1 91 92 92 92 92 92 92 92 92 92 92 92 92 92 0
1 92 92 92 92 92 92 92 92 92 92 92 92 92 92 0
1 92 92 92 92 92 92 92 92 92 92 92 92 92 92 0
1 92 92 92 92 92 92 92 92 92 93 93 93 93 93 0
1 93 93 93 93 93 93 93 93 93 93 93 93 93 93 0
1 93 93 93 93 93 93 93 93 93 93 93 93 93 93 0
1 93 93 93 93 93 93 93 93 93 93 93 93 93 93 0
1 93 93 93 93 94 94 94 94 94 94 94 94 94 94 0
1 94 94 94 94 94 94 94 94 94 94 94 94 94 94 0
1 94 94 94 94 94 94 94 94 94 94 94 94 94 94 0
1 94 94 94 94 94 94 94 94 94 94 94 94 94 94 0
1 94 94 95 95 95 95 95 95 95 95 95 95 95 95 0
1 95 95 95 95 95 95 95 95 95 95 95 95 95 95 0
1 95 95 95 95 95 95 95 95 95 95 95 95 95 95 0
1 95 95 95 95 95 95 95 95 95 95 95 95 95 96 0
1 96 96 96 96 96 96 96 96 96 96 96 96 96 96 0
1 96 96 96 96 96 96 96 96 96 96 96 96 96 96 0
1 96 96 96 96 96 96 96 96 96 97 97 97 97 97 0
1 97 97 97 97 97 97 97 97 97 97 97 97 97 97 0
1 97 97 97 97 97 97 97 97 97 97 97 97 97 97 0
1 97 97 97 97 97 97 97 97 97 97 97 97 97 97 0
1 97 97 97 97 98 98 98 98 98 98 98 98 98 98 0
1 98 98 98 98 98 98 98 98 98 98 98 98 98 98 0
1 98 98 98 98 98 98 98 98 98 98 98 98 98 98 0
1 98 98 98 98 98 98 99 99 99 99 99 99 99 99 0
1 99 99 99 99 99 99 99 99 99 99 99 99 99 99 0
1 99 99 99 99 99 99 99 99 99 99 99 99 99 99 0
1 99 99 99 99 99 99 99 99 99 99 99 100 100 100 0
1 100 100 100 100 100 100 100 100 100 100 100 100 100 100 0
1 100 100 100 100 100 100 100 100 100 100 100 100 100 100 0
1 100 100 100 100 100 100 100 100 100 100 100 100 100 100 0
1 100 100 100 100 0
1  0
1 13 15 21 25 29 30 32 36 47 48 49 50 60 64 0
1 71 80 82 86 93 96 97 101 103 129 138 141 143 150 0
1 168 174 177 185 193 198 207 211 218 223 226 232 238 242 0
1 259 265 272 273 281 283 291 292 293 296 306 307 310 316 0
1 333 339 340 342 350 351 352 357 372 380 405 406 418 441 0
1 453 456 459 462 465 468 469 473 476 484 485 488 491 496 0
1 509 513 524 525 530 537 540 541 551 556 566 570 571 574 0
1 579 587 588 590 595 599 606 610 613 625 628 631 632 640 0
1 645 648 651 654 657 659 661 666 672 674 675 676 677 682 0
1 687 699 701 704 705 711 715 728 734 737 742 746 747 751 0
1 756 757 766 767 770 773 774 780 784 786 789 798 799 803 0
1 809 813 822 827 830 832 833 846 848 852 870 876 878 881 0
1 884 894 916 923 930 931 935 938 939 940 956 961 974 980 0
1 983 988 992 994 1002 1003 1018 1021 1022 1037 1038 1044 1047 1054 0
1 1056 1057 1063 1065 1080 1085 1089 1091 1094 1095 1096 1104 1105 1110 0
1 1125 1127 1135 1142 1144 1152 1163 1170 1185 1196 1207 1209 1210 1224 0
1 1230 1234 1237 1241 1244 1259 1262 1267 1275 1285 1290 1293 1296 1298 0
1 1326 1333 1334 1346 1350 1351 1358 1365 1367 1368 1370 1374 1376 1379 0
1 1382 1390 1393 1396 1397 1411 1412 1415 1422 1446 1460 1464 1465 1469 0
1 1475 1490 1492 1493 1496 1500 1501 1502 1504 1506 1510 1513 1515 1518 0
1 1541 1556 1558 1560 1561 1570 1571 1581 1582 1590 1593 1597 1598 1601 0
1 1605 1611 1612 1619 1620 1621 1622 1627 1628 1630 1633 1661 1665 1667 0
1 1669 1673 1676 1687 1688 1689 1692 1694 1698 1700 1705 1710 1715 1716 0
1 1729 1732 1733 1735 1736 1737 1745 1746 1751 1753 1755 1757 1759 1762 0
1 1771 1789 1790 1792 1799 1812 1813 1823 1824 1829 1831 1832 1845 1865 0
1 1872 1879 1885 1892 1896 1918 1923 1927 1947 1949 1952 1954 1958 1959 0
1 1965 1970 1971 1980 1984 1989 1991 1992 1995 2005 2009 2010 2014 2020 0
1 2027 2029 2036 2044 2052 2061 2067 2068 2076 2080 2091 2096 2109 2110 0
1 2123 2135 2137 2144 2148 2149 2155 2159 2162 2172 2183 2184 2190 2195 0
1 2210 2217 2223 2224 2228 2229 2231 2235 2239 2254 2256 2264 2268 2271 0
1 2285 2288 2293 2296 2309 2324 2325 2327 2330 2340 2346 2348 2349 2353 0
1 2358 2362 2363 2364 2385 2392 2394 2402 2407 2410 2414 2417 2418 2430 0
1 2438 2451 2457 2459 2460 2461 2462 2463 2471 2472 2474 2478 2489 2490 0
1 2500 2504 2521 2526 2531 2534 2535 2537 2543 2544 2548 2551 2554 2560 0
1 2568 2571 2573 2580 2587 2590 2592 2595 2596 2600 2610 2611 2619 2621 0
1 2647 2654 2662 2667 2668 2671 2673 2676 2679 2695 2702 2710 2711 2716 0
1 2720 2722 2727 2733 2738 2747 2753 2760 2761 2763 2769 2775 2779 2781 0
1 2820 2825 2832 2837 2844 2857 2863 2865 2866 2884 2887 2888 2900 2906 0
1 2909 2910 2917 2923 2925 2933 2935 2941 2942 2951 2954 2961 2963 2964 0
1 2968 2969 2973 2975 2981 2984 2990 2991 2992 3005 3006 3015 3020 3023 0
1 3027 3031 3043 3048 3053 3055 3058 3064 3074 3082 3085 3087 3088 3090 0
1 3103 3105 3106 3109 3113 3120 3128 3132 3139 3145 3154 3162 3169 3188 0
1 3195 3196 3198 3201 3209 3213 3217 3221 3228 3231 3242 3244 3253 3257 0
1 3279 3281 3284 3292 3293 3310 3316 3317 3322 3330 3335 3338 3345 3348 0
1 3350 3358 3361 3375 3380 3381 3383 3385 3389 3397 3402 3404 3408 3409 0
1 3414 3415 3418 3426 3429 3436 3441 3443 3457 3470 3473 3476 3477 3489 0
1 3495 3502 3513 3518 3519 3522 3527 3539 3541 3554 3558 3563 3566 3567 0
1 3571 3574 3581 3583 3584 3606 3609 3612 3614 3619 3627 3628 3636 3640 0
1 3648 3649 3668 3669 3672 3675 3676 3679 3680 3681 3684 3688 3704 3710 0
1 3713 3716 3717 3721 3733 3735 3738 3739 3742 3748 3752 3761 3763 3767 0
1 3783 3787 3788 3801 3805 3809 3813 3817 3818 3819 3820 3822 3824 3830 0
1 3841 3846 3851 3854 3860 3863 3866 3874 3883 3885 3889 3893 3896 3905 0
1 3929 3931 3950 3951 3953 3960 3962 3968 3975 3976 3977 3982 3985 3988 0
1 4001 4009 4012 4015 4026 4028 4029 4037 4043 4049 4052 4057 4059 4063 0
1 4075 4081 4092 4099 4107 4110 4112 4113 4114 4115 4120 4121 4124 4126 0
1 4135 4136 4144 4152 4153 4155 4160 4163 4167 4170 4183 4189 4190 4198 0
1 4210 4212 4229 4236 4242 4251 4260 4265 4269 4270 4272 4281 4282 4287 0
1 4294 4298 4301 4307 4312 4317 4319 4323 4331 4334 4350 4353 4363 4372 0
1 4386 4390 4409 4435 4441 4447 4449 4451 4455 4462 4463 4465 4466 4467 0
1 4484 4491 4493 4501 4504 4510 4516 4523 4525 4532 4533 4537 4548 4551 0
1 4568 4577 4582 4592 4594 4597 4601 4613 4616 4622 4623 4624 4641 4645 0
1 4675 4681 4686 4699 4701 4705 4709 4711 4717 4719 4725 4728 4732 4741 0
1 4755 4762 4771 4776 4783 4791 4795 4798 4805 4809 4818 4828 4829 4830 0
1 4858 4864 4865 4874 4890 4891 4894 4900 4901 4903 4905 4906 4907 4909 0
1 4917 4925 4926 4929 4938 4941 4943 4947 4949 4950 4952 4962 4964 4968 0
1 4971 4975 4976 4983 4992 4997 0
1  0
1 9 11 13 26 28 35 41 42 43 44 46 53 54 58 0
1 66 85 86 88 91 93 99 108 110 117 121 124 127 131 0
1 133 142 154 158 162 164 168 171 177 178 181 183 189 192 0
1 195 208 213 216 225 231 233 237 244 248 250 251 253 256 0
1 265 280 287 304 305 310 314 317 318 321 323 325 330 337 0
1 356 364 367 368 369 373 378 382 390 392 402 404 408 416 0
1 423 425 431 434 439 449 454 459 464 472 473 479 480 488 0
1 506 512 515 516 521 530 532 542 544 553 557 565 567 568 0
1 577 585 587 588 589 591 598 599 609 613 615 616 623 627 0
1 631 638 641 642 658 663 667 679 682 683 696 706 718 720 0
1 728 732 741 745 749 751 752 761 767 772 773 777 780 781 0
1 798 806 808 814 818 832 836 838 847 852 857 859 862 865 0
1 877 881 898 903 907 909 934 951 958 961 964 970 971 973 0
1 982 983 985 988 992 995 1004 1013 1019 1024 1030 1039 1043 1047 0
1 1056 1063 1065 1070 1074 1075 1082 1087 1092 1101 1103 1107 1108 1110 0
1 1113 1121 1131 1133 1135 1136 1139 1140 1144 1145 1150 1152 1173 1177 0
1 1182 1188 1189 1190 1191 1193 1208 1209 1211 1216 1230 1244 1250 1252 0
1 1256 1260 1277 1295 1305 1306 1307 1309 1310 1315 1325 1326 1334 1342 0
1 1354 1358 1362 1365 1367 1368 1372 1383 1386 1388 1392 1393 1400 1407 0
1 1421 1430 1434 1438 1444 1445 1448 1453 1468 1472 1485 1493 1499 1500 0
1 1509 1510 1511 1513 1514 1516 1520 1526 1535 1543 1563 1564 1567 1569 0
1 1573 1575 1578 1580 1587 1593 1601 1604 1607 1620 1628 1632 1638 1640 0
1 1647 1648 1649 1650 1663 1666 1669 1678 1683 1689 1692 1694 1701 1702 0
1 1720 1722 1727 1731 1735 1736 1754 1755 1756 1757 1769 1772 1775 1779 0
1 1790 1799 1808 1810 1811 1819 1826 1828 1829 1836 1840 1845 1850 1853 0
1 1857 1866 1873 1875 1879 1882 1883 1888 1890 1898 1899 1904 1905 1908 0
1 1911 1913 1914 1916 1925 1932 1935 1949 1952 1958 1962 1965 1967 1968 0
1 1977 1982 1985 1989 1995 1998 2004 2007 2012 2014 2038 2042 2045 2047 0
1 2049 2052 2055 2064 2066 2075 2078 2081 2090 2102 2112 2114 2115 2117 0
1 2121 2122 2126 2139 2151 2152 2155 2156 2160 2161 2163 2170 2172 2173 0
1 2199 2200 2202 2211 2215 2220 2224 2230 2237 2243 2245 2247 2260 2263 0
1 2275 2277 2279 2281 2286 2287 2288 2289 2294 2296 2307 2311 2314 2321 0
1 2348 2352 2354 2358 2360 2376 2379 2388 2392 2402 2403 2405 2408 2428 0
1 2454 2459 2467 2473 2474 2477 2479 2486 2501 2513 2515 2527 2530 2534 0
1 2545 2551 2557 2561 2562 2566 2580 2585 2595 2596 2601 2607 2612 2616 0
1 2621 2624 2637 2642 2645 2646 2649 2652 2672 2675 2698 2699 2701 2706 0
1 2711 2713 2719 2720 2723 2724 2728 2737 2740 2750 2756 2757 2759 2762 0
1 2774 2781 2783 2785 2791 2799 2804 2808 2811 2812 2818 2824 2828 2835 0
1 2848 2852 2855 2858 2886 2892 2899 2902 2903 2905 2909 2911 2913 2920 0
1 2934 2938 2939 2947 2952 2957 2960 2962 2963 2968 2970 2972 2973 2975 0
1 3000 3002 3017 3019 3022 3028 3031 3033 3041 3042 3045 3050 3060 3063 0
1 3066 3067 3086 3089 3094 3107 3112 3113 3124 3125 3132 3143 3145 3148 0
1 3155 3158 3167 3171 3180 3183 3186 3189 3202 3204 3207 3210 3212 3214 0
1 3220 3223 3228 3233 3234 3237 3242 3243 3245 3246 3247 3249 3252 3257 0
1 3263 3268 3274 3277 3286 3292 3297 3302 3311 3313 3316 3319 3322 3324 0
1 3330 3335 3336 3343 3351 3352 3353 3356 3357 3368 3372 3390 3399 3402 0
1 3411 3414 3421 3428 3429 3431 3434 3437 3438 3443 3446 3447 3449 3452 0
1 3454 3465 3470 3475 3484 3485 3486 3500 3501 3503 3504 3506 3510 3511 0
1 3521 3522 3525 3537 3541 3549 3560 3568 3573 3578 3583 3586 3595 3599 0
1 3621 3624 3625 3626 3628 3633 3641 3653 3654 3655 3665 3666 3688 3696 0
1 3705 3706 3707 3708 3710 3713 3716 3718 3722 3726 3729 3730 3733 3734 0
1 3736 3737 3743 3755 3759 3762 3763 3765 3766 3767 3770 3773 3775 3779 0
1 3791 3795 3802 3806 3808 3813 3815 3817 3823 3827 3834 3839 3843 3844 0
1 3851 3854 3859 3866 3871 3875 3877 3884 3887 3893 3899 3909 3912 3914 0
1 3918 3924 3928 3929 3932 3937 3941 3943 3954 3961 3964 3974 3975 3987 0
1 4016 4031 4034 4041 4046 4053 4063 4071 4073 4074 4077 4098 4108 4109 0
1 4123 4132 4142 4145 4148 4153 4156 4161 4165 4177 4178 4182 4187 4188 0
1 4208 4214 4217 4218 4219 4221 4225 4229 4236 4237 4238 4243 4244 4245 0
1 4266 4267 4271 4272 4274 4275 4283 4290 4293 4294 4295 4305 4307 4319 0
1 4326 4333 4335 4337 4338 4341 4346 4347 4354 4363 4368 4375 4379 4383 0
1 4390 4392 4397 4399 4408 4411 4419 4421 4424 4431 4438 4449 4468 4469 0
1 4490 4491 4497 4498 4501 4511 4518 4523 4536 4538 4539 4545 4552 4557 0
1 4568 4573 4579 4580 4596 4597 4598 4609 4611 4614 4619 4623 4640 4642 0
1 4647 4650 4653 4656 4661 4662 4665 4667 4668 4670 4672 4678 4684 4693 0
1 4701 4713 4734 4738 4739 4759 4760 4763 4785 4790 4791 4792 4804 4805 0
1 4824 4826 4834 4848 4852 4854 4855 4856 4857 4860 4862 4870 4872 4877 0
1 4911 4913 4916 4917 4923 4929 4931 4932 4933 4934 4937 4949 4961 4973 0
1 4988 4991 4992 4998 0
1  0
1 4 5 10 12 15 22 27 28 32 33 40 44 52 54 0
1 66 70 85 90 97 103 110 117 118 123 129 139 150 153 0
1 164 167 169 187 196 204 207 210 223 230 236 240 241 243 0
1 248 250 252 253 254 255 256 257 260 262 264 272 275 279 0
1 305 306 307 310 314 319 323 328 331 335 338 341 345 354 0
1 363 364 365 368 377 378 387 392 400 409 410 418 420 422 0
1 438 441 454 471 473 475 481 482 484 486 491 492 493 500 0
1 513 519 524 529 532 535 539 544 547 549 550 552 559 566 0
1 576 586 592 595 596 607 610 616 617 619 620 630 640 647 0
1 658 660 661 663 667 681 683 685 687 689 693 698 699 716 0
1 726 729 732 735 745 754 756 757 758 762 766 771 773 775 0
1 820 822 823 826 827 828 833 835 838 851 852 857 861 862 0
1 864 868 871 877 882 884 885 886 898 899 904 907 927 928 0
1 936 938 942 943 955 957 962 979 981 982 984 989 994 1003 0
1 1016 1021 1023 1037 1046 1048 1050 1053 1062 1077 1086 1089 1102 1109 0
1 1122 1125 1126 1131 1132 1133 1137 1144 1145 1146 1175 1189 1192 1195 0
1 1198 1199 1203 1211 1228 1234 1235 1251 1256 1257 1268 1272 1274 1275 0
1 1283 1284 1285 1296 1300 1302 1303 1318 1321 1330 1337 1340 1345 1346 0
1 1352 1357 1359 1365 1370 1372 1385 1401 1410 1423 1434 1435 1438 1445 0
1 1459 1462 1465 1468 1469 1471 1473 1474 1494 1497 1499 1502 1515 1521 0
1 1536 1542 1548 1559 1562 1566 1574 1576 1586 1589 1593 1594 1595 1603 0
1 1609 1614 1623 1624 1631 1632 1635 1636 1644 1645 1647 1657 1662 1669 0
1 1686 1687 1706 1707 1714 1715 1743 1749 1756 1759 1771 1772 1773 1775 0
1 1782 1783 1786 1796 1797 1803 1808 1818 1819 1832 1842 1843 1844 1845 0
1 1854 1856 1857 1860 1861 1862 1866 1873 1877 1881 1882 1886 1890 1897 0
1 1916 1917 1918 1921 1923 1924 1931 1934 1935 1940 1944 1945 1953 1957 0
1 1964 1972 1974 1976 1978 1987 1992 1995 1996 1999 2000 2003 2006 2008 0
1 2024 2025 2027 2032 2036 2038 2041 2047 2053 2056 2064 2068 2069 2070 0
1 2075 2081 2085 2086 2090 2100 2104 2107 2124 2125 2132 2144 2149 2152 0
1 2155 2157 2158 2168 2170 2171 2181 2184 2193 2194 2195 2207 2215 2217 0
